0 0 2 0 1
3 0 1 0 5
2 0 2 1 5
5 0 1 5 3
3 1 0 5 5
4 0 2 6 9
2 1 3 6 4
1 0 1 8 8
5 1 3 10 3
0 1 0 10 3
2 2 5 10 8
4 1 1 16 3
1 1 2 16 5
5 2 5 18 9
2 3 0 18 9
4 2 4 19 5
0 2 1 19 6
3 2 2 21 5
1 2 4 24 10
3 3 3 26 3
4 3 5 27 4
5 3 0 27 10
2 4 1 27 1
0 3 3 29 7
1 3 5 34 10
3 4 4 34 8
4 4 0 37 3
4 5 3 40 1
5 4 4 42 4
0 4 5 44 3
1 4 0 44 10
2 5 4 46 7
5 5 2 46 1
3 5 5 47 9
0 5 4 53 6
1 5 3 54 4
